
Gurobi 10.0.1 (win64) logging started Thu May 18 16:25:13 2023

Set parameter LogFile to value "results/log/Fattahi_setup_07_modificated.log"
Gurobi Optimizer version 10.0.1 build v10.0.1rc0 (win64)

CPU model: AMD Ryzen 7 3700X 8-Core Processor, instruction set [SSE2|AVX|AVX2]
Thread count: 8 physical cores, 16 logical processors, using up to 16 threads

Optimize a model with 131 rows, 118 columns and 454 nonzeros
Model fingerprint: 0xc83004ca
Variable types: 0 continuous, 118 integer (99 binary)
Coefficient statistics:
  Matrix range     [1e+00, 1e+09]
  Objective range  [1e+00, 1e+00]
  Bounds range     [1e+00, 1e+00]
  RHS range        [1e+00, 3e+09]
Warning: Model contains large matrix coefficients
Warning: Model contains large rhs
         Consider reformulating model or setting NumericFocus parameter
         to avoid numerical issues.
Presolve removed 46 rows and 65 columns
Presolve time: 0.00s
Presolved: 85 rows, 53 columns, 376 nonzeros
Variable types: 0 continuous, 53 integer (35 binary)

Root relaxation: objective 8.990000e+02, 19 iterations, 0.00 seconds (0.00 work units)

    Nodes    |    Current Node    |     Objective Bounds      |     Work
 Expl Unexpl |  Obj  Depth IntInf | Incumbent    BestBd   Gap | It/Node Time

     0     0  899.00002    0    7          -  899.00002      -     -    0s
H    0     0                    1507.0000000  899.00002  40.3%     -    0s
H    0     0                    1271.0000000  910.00001  28.4%     -    0s
     0     0  910.00001    0    4 1271.00000  910.00001  28.4%     -    0s
H    0     0                     923.0000000  910.00001  1.41%     -    0s

Cutting planes:
  Learned: 2
  Flow cover: 7

Explored 1 nodes (31 simplex iterations) in 0.01 seconds (0.00 work units)
Thread count was 16 (of 16 available processors)

Solution count 3: 923 1271 1507 

Optimal solution found (tolerance 1.00e-04)
Best objective 9.230000000000e+02, best bound 9.230000000000e+02, gap 0.0000%
Warning: variable name "y[job:0, stage:0, machine:1]" has a space
Warning: constraint name "precedence between 0,1 to 0,0 if x_[j,l,h,z,i]=1" has a space
Warning: to let Gurobi read it back, use rlp format
Warning: variable name "y[job:0, stage:0, machine:1]" has a space
Warning: constraint name "precedence between 0,1 to 0,0 if x_[j,l,h,z,i]=1" has a space
Warning: default variable names used to write mps file
Warning: default constraint names used to write mps file
Warning: variable name "y[job:0, stage:0, machine:1]" has a space
Warning: default variable names used to write solution file
